22	3

10	6	10	

0	0	0	0	3	2	3	4	
3	3	5	2	2	5	6	
2	5	4	3	2	5	8	
9	5	2	2	2	6	7	
7	4	1	4	2	9	10	
7	5	5	4	2	11	12	
3	3	5	2	2	9	10	
2	2	4	4	2	9	10	
1	3	2	2	1	13	
2	3	2	4	1	14	
4	3	3	2	2	13	15	
2	4	1	4	2	13	16	
2	1	4	4	1	17	
3	2	2	2	1	19	
5	5	5	4	1	18	
1	1	5	4	1	18	
1	4	5	4	1	21	
8	3	2	3	1	20	
6	5	3	3	1	20	
4	2	4	6	1	22	
2	1	6	2	1	22	
0	0	0	0	0	
